c preprocessed version of celar08-wpp, 76 vertices, 421 edges
p td 76 421
0 1
0 2
0 3
0 4
5 0
1 2
1 3
1 4
5 1
2 3
2 4
5 2
9 2
3 4
9 3
5 4
9 4
6 5
70 5
7 6
71 6
70 6
7 8
7 20
7 71
70 7
9 8
20 8
10 8
71 8
10 9
10 11
68 10
11 12
11 27
11 28
11 29
11 30
11 31
11 32
11 33
11 34
11 35
11 36
11 37
11 38
11 39
11 41
11 49
11 50
11 51
11 52
11 53
11 54
11 55
11 56
11 57
11 58
11 59
11 62
11 68
13 12
12 26
31 12
33 12
35 12
28 12
36 12
37 12
38 12
12 27
12 46
12 39
12 40
12 64
12 59
14 13
29 13
31 13
32 13
13 28
13 35
13 36
13 37
13 38
13 41
13 27
13 60
13 65
13 43
13 42
13 54
13 49
13 51
13 50
13 48
13 55
13 62
13 64
13 63
13 56
13 44
14 15
14 28
14 44
14 43
15 16
17 16
23 16
24 16
16 25
18 17
17 23
17 22
17 24
17 25
18 19
18 23
18 22
18 21
70 18
20 19
19 69
19 21
70 19
20 21
71 20
70 20
22 21
70 21
23 22
24 23
23 25
24 25
24 26
24 46
24 61
62 24
27 26
45 26
47 26
26 46
26 61
26 69
62 26
28 27
31 27
33 27
35 27
36 27
37 27
38 27
27 46
27 39
27 40
27 64
27 59
29 28
30 28
31 28
32 28
33 28
34 28
28 36
28 37
28 38
28 41
28 60
28 65
28 43
28 42
28 54
28 49
28 51
28 50
28 48
28 53
28 39
28 55
28 66
28 67
28 62
28 40
28 64
28 56
28 58
28 57
28 59
28 52
29 30
29 31
29 41
29 54
29 49
29 51
29 50
29 53
29 55
29 40
29 64
29 56
29 58
29 57
29 59
29 33
30 31
30 32
30 36
30 37
30 41
30 54
30 50
30 53
30 55
30 40
30 56
30 58
30 57
30 51
30 52
30 59
31 32
31 36
31 37
31 41
31 54
31 51
31 50
31 53
31 55
31 66
31 67
31 40
31 56
31 58
31 59
31 52
31 57
33 32
34 32
32 35
32 36
32 37
32 41
32 60
32 65
32 54
32 53
32 55
32 66
32 67
32 40
32 52
32 56
32 57
32 38
32 39
68 32
33 34
33 35
33 38
33 39
33 69
33 55
33 57
33 50
33 58
33 59
34 35
34 38
34 39
34 69
34 40
34 58
34 59
35 36
35 37
35 38
35 39
35 69
35 62
35 40
36 37
36 38
36 41
36 40
36 58
36 59
36 55
37 38
37 41
37 40
37 58
37 59
37 55
38 39
38 40
39 40
39 69
54 39
39 55
39 56
39 58
39 59
41 40
50 40
60 40
65 40
69 40
54 40
53 40
55 40
66 40
67 40
40 63
40 56
40 57
68 40
41 42
41 51
41 53
41 62
41 52
41 63
41 58
41 59
41 66
41 67
43 42
42 49
42 48
42 62
42 64
43 44
43 49
43 48
43 64
45 44
47 44
44 48
45 46
45 47
45 48
45 62
47 46
46 61
46 69
62 46
47 48
47 62
49 48
60 48
65 48
48 64
49 50
60 49
49 64
51 50
50 58
50 59
51 52
51 58
51 59
53 52
52 58
52 59
54 53
53 55
53 56
53 58
53 57
54 55
54 56
54 57
55 56
55 57
56 57
58 59
61 60
60 65
60 66
60 67
68 60
61 62
61 65
62 63
64 63
65 66
65 67
68 65
66 67
68 66
68 67
70 71
72 73
72 74
72 14
72 15
73 74
73 0
73 1
73 3
74 0
74 1
74 2
74 6
74 23
74 3
74 22
74 21
74 4
74 5
74 9
74 75
74 25
74 70
75 72
75 73
75 15
75 16
75 25
